20
1 0 2
2 0 2
2 1 4
3 0 5
3 1 2
3 2 1
4 0 2
4 1 5
4 2 4
4 3 1
5 0 9
5 1 2
5 2 4
5 3 6
5 4 9
6 0 6
6 1 1
6 2 7
6 3 2
6 4 2
6 5 8
7 0 10
7 1 4
7 2 10
7 3 7
7 4 3
7 5 5
7 6 1
8 0 1
8 1 3
8 2 8
8 3 10
8 4 10
8 5 5
8 6 1
8 7 5
9 0 3
9 1 8
9 2 10
9 3 9
9 4 9
9 5 3
9 6 4
9 7 5
9 8 4
10 0 10
10 1 10
10 2 1
10 3 9
10 4 1
10 5 3
10 6 3
10 7 4
10 8 3
10 9 2
11 0 1
11 1 5
11 2 1
11 3 5
11 4 7
11 5 6
11 6 9
11 7 4
11 8 8
11 9 2
11 10 1
12 0 5
12 1 6
12 2 3
12 3 4
12 4 2
12 5 5
12 6 7
12 7 5
12 8 6
12 9 6
12 10 7
12 11 7
13 0 6
13 1 3
13 2 5
13 3 1
13 4 3
13 5 2
13 6 7
13 7 2
13 8 5
13 9 7
13 10 6
13 11 8
13 12 8
14 0 8
14 1 7
14 2 4
14 3 8
14 4 1
14 5 7
14 6 10
14 7 10
14 8 7
14 9 6
14 10 1
14 11 3
14 12 9
14 13 7
15 0 9
15 1 7
15 2 3
15 3 9
15 4 2
15 5 3
15 6 6
15 7 5
15 8 7
15 9 7
15 10 5
15 11 6
15 12 10
15 13 7
15 14 6
16 0 8
16 1 5
16 2 1
16 3 8
16 4 5
16 5 2
16 6 5
16 7 8
16 8 10
16 9 7
16 10 6
16 11 9
16 12 2
16 13 3
16 14 5
16 15 4
17 0 5
17 1 3
17 2 2
17 3 2
17 4 5
17 5 1
17 6 3
17 7 1
17 8 6
17 9 9
17 10 5
17 11 3
17 12 8
17 13 7
17 14 10
17 15 1
17 16 6
18 0 2
18 1 5
18 2 6
18 3 4
18 4 4
18 5 4
18 6 7
18 7 3
18 8 10
18 9 6
18 10 4
18 11 5
18 12 1
18 13 10
18 14 2
18 15 9
18 16 7
18 17 3
19 0 3
19 1 6
19 2 5
19 3 1
19 4 8
19 5 9
19 6 8
19 7 9
19 8 5
19 9 2
19 10 8
19 11 4
19 12 10
19 13 5
19 14 8
19 15 4
19 16 4
19 17 10
19 18 5
